 vasp.5.4.4.18Apr17-6-g9f103f2a35 (build Feb 28 2020 14:15:47) complex

 executed on             LinuxIFC date 2022.11.20  05:26:52

 INCAR:
 POTCAR:    PAW P 26Mar2009
 POTCAR:    PAW S 27Mar2009
 POTCAR:    PAW Li_sv 10Sep2004
 POTCAR:    PAW P 26Mar2009
   VRHFIN =P : s2p3

   TITEL  = PAW P 26Mar2009
   POMASS =   30.974; ZVAL   =    5.000    mass and valenz
   ENMAX  =  255.155; ENMIN  =  191.366 eV

 POTCAR:    PAW S 27Mar2009
   VRHFIN =S : s2p4

   TITEL  = PAW S 27Mar2009
   POMASS =   32.066; ZVAL   =    6.000    mass and valenz
   ENMAX  =  258.602; ENMIN  =  193.952 eV

 POTCAR:    PAW Li_sv 10Sep2004
   VRHFIN =Li: 1s2s

   TITEL  = PAW Li_sv 10Sep2004
   POMASS =    7.010; ZVAL   =    3.000    mass and valenz
   ENMAX  =  498.387; ENMIN  =  373.790 eV

 Optimization of the real space projectors (new method)

 maximal supplied QI-value         = 19.84
 optimisation between [QCUT,QGAM] = [ 10.32, 20.83] = [ 29.81,121.55] Ry
 Optimized for a Real-space Cutoff    1.39 Angstroem

   l    n(q)    QCUT    max X(q) W(low)/X(q) W(high)/X(q)  e(spline)
   0      9    10.318   158.476    0.64E-04    0.80E-04    0.60E-07
   0      9    10.318   128.097    0.63E-04    0.79E-04    0.60E-07
   1      8    10.318    73.217    0.18E-03    0.19E-03    0.20E-06
   1      8    10.318    48.248    0.18E-03    0.19E-03    0.19E-06
 Optimization of the real space projectors (new method)

[...]

   l    n(q)    QCUT    max X(q) W(low)/X(q) W(high)/X(q)  e(spline)
   0      9    10.318   180.455    0.73E-04    0.81E-04    0.62E-07
   0      9    10.318   157.733    0.72E-04    0.81E-04    0.62E-07
   1      8    10.318    66.201    0.18E-03    0.20E-03    0.20E-06
   1      8    10.318    49.617    0.18E-03    0.20E-03    0.20E-06
 Optimization of the real space projectors (new method)

 maximal supplied QI-value         = 22.11
 optimisation between [QCUT,QGAM] = [ 10.39, 20.78] = [ 30.24,120.96] Ry
 Optimized for a Real-space Cutoff    1.20 Angstroem

   l    n(q)    QCUT    max X(q) W(low)/X(q) W(high)/X(q)  e(spline)
   0      7    10.392    10.443    0.77E-04    0.41E-05    0.30E-07
   0      7    10.392     8.514    0.20E-03    0.36E-04    0.67E-07
   1      7    10.392     5.406    0.20E-03    0.20E-03    0.12E-06
  PAW P 26Mar2009                       :
  PAW S 27Mar2009                       :
  PAW Li_sv 10Sep2004                   :

 POSCAR: Good luck
  positions in cartesian coordinates
 exchange correlation table for  LEXCH =        2
   RHO(1)=    0.500       N(1)  =     2000
   RHO(2)=  100.500       N(2)  =     4000

 ion  position               nearest neighbor table
   1  0.212  0.976  0.896-   4 2.04   5 2.04   6 2.04   3 2.05
   2  0.712  0.128  0.397-  10 2.04   8 2.04   7 2.04   9 2.05
   3  0.172  0.276  0.572-   1 2.05  13 2.40  12 2.53  14 2.55
   4  0.390  0.100  0.776-   1 2.04  13 2.42  11 2.45  12 2.65
   5  0.036  0.445  0.016-   1 2.04  13 2.43  14 2.45  15 2.69
   6  0.251  0.074  0.218-   1 2.04  13 2.41  15 2.54  11 2.55
   7  0.751  0.825  0.719-   2 2.04  16 2.41  11 2.54  15 2.55
   8  0.535  0.008  0.518-   2 2.04  16 2.42  12 2.45
   9  0.673  0.032  0.073-   2 2.05  16 2.41  14 2.53  12 2.55
  10  0.889  0.658  0.276-   2 2.04  16 2.42  15 2.45  14 2.67
  11  0.510  0.425  0.032-   4 2.45   7 2.54   6 2.55
  12  0.414  0.693  0.255-   8 2.45   3 2.53   9 2.55   4 2.65
  13  0.215  0.477  0.888-   3 2.40   6 2.41   4 2.42   5 2.43
  14  0.914  0.658  0.758-   5 2.45   9 2.53   3 2.55  10 2.67
  15  0.010  0.440  0.533-  10 2.45   6 2.54   7 2.55   5 2.69
  16  0.713  0.637  0.394-   9 2.41   7 2.41  10 2.42   8 2.42

  LATTYP: Found a triclinic cell.
 ALAT       =    12.3357056999
 B/A-ratio  =     0.7831458081
 C/A-ratio  =     0.4754699025
 COS(alpha) =     0.0007090378
 COS(beta)  =     0.2381002862
 COS(gamma) =     0.8962450489

  Lattice vectors:

 A1 = (  -5.0966609136,  -8.6049150196,   7.2214347709)
 A2 = (  -7.3735067467,  -5.3581571263,   3.2015353894)
 A3 = (   2.9590168717,  -4.8825319033,  -1.3440009438)

Analysis of symmetry for initial positions (statically):
 Subroutine PRICEL returns:
 Original cell was already a primitive cell.

 Routine SETGRP: Setting up the symmetry group for a
 triclinic supercell.

 Subroutine GETGRP returns: Found  1 space group operations
 (whereof  1 operations were pure point group operations)
 out of a pool of  2 trial point group operations.

The static configuration has the point symmetry C_1 .

Analysis of symmetry for dynamics (positions and initial velocities):
 Subroutine PRICEL returns:
 Original cell was already a primitive cell.

 Routine SETGRP: Setting up the symmetry group for a
 triclinic supercell.

 Subroutine GETGRP returns: Found  1 space group operations
 (whereof  1 operations were pure point group operations)
 out of a pool of  2 trial point group operations.

The dynamic configuration has the point symmetry C_1 .

 Subroutine INISYM returns: Found  1 space group operations
 (whereof  1 operations are pure point group operations),
 and found     1 'primitive' translations

 KPOINTS: Automatic mesh

Automatic generation of k-mesh.
Space group operators:
 irot       det(A)        alpha          n_x          n_y          n_z        tau_x        tau_y        tau_z
    1     1.000000     0.000000     1.000000     0.000000     0.000000     0.000000     0.000000     0.000000

 Subroutine IBZKPT returns following result:

 Found     36 irreducible k-points:

 Following reciprocal coordinates:
            Coordinates               Weight
  0.000000  0.000000  0.000000      1.000000
  0.250000 -0.000000 -0.000000      2.000000
  0.500000 -0.000000 -0.000000      1.000000
  0.000000  0.250000  0.000000      2.000000
  0.250000  0.250000  0.000000      2.000000
  0.500000  0.250000  0.000000      2.000000
 -0.250000  0.250000  0.000000      2.000000
  0.000000  0.500000  0.000000      1.000000
  0.250000  0.500000  0.000000      2.000000
  0.500000  0.500000  0.000000      1.000000
 -0.000000  0.000000  0.250000      2.000000
  0.250000  0.000000  0.250000      2.000000
  0.500000  0.000000  0.250000      2.000000
 -0.250000  0.000000  0.250000      2.000000
  0.000000  0.250000  0.250000      2.000000
  0.250000  0.250000  0.250000      2.000000
  0.500000  0.250000  0.250000      2.000000
 -0.250000  0.250000  0.250000      2.000000
 -0.000000  0.500000  0.250000      2.000000
  0.250000  0.500000  0.250000      2.000000
  0.500000  0.500000  0.250000      2.000000
 -0.250000  0.500000  0.250000      2.000000
 -0.000000 -0.250000  0.250000      2.000000
  0.250000 -0.250000  0.250000      2.000000
  0.500000 -0.250000  0.250000      2.000000
 -0.250000 -0.250000  0.250000      2.000000
 -0.000000  0.000000  0.500000      1.000000
  0.250000  0.000000  0.500000      2.000000
  0.500000  0.000000  0.500000      1.000000
  0.000000  0.250000  0.500000      2.000000
  0.250000  0.250000  0.500000      2.000000
  0.500000  0.250000  0.500000      2.000000
 -0.250000  0.250000  0.500000      2.000000
  0.000000  0.500000  0.500000      1.000000
  0.250000  0.500000  0.500000      2.000000
  0.500000  0.500000  0.500000      1.000000

 Following cartesian coordinates:
            Coordinates               Weight
  0.000000  0.000000  0.000000      1.000000
  0.022904  0.014278 -0.001441      2.000000
  0.045808  0.028555 -0.002882      1.000000
  0.013370  0.064229 -0.017887      2.000000
  0.036274  0.078507 -0.019328      2.000000
  0.059178  0.092785 -0.020769      2.000000
 -0.009534  0.049952 -0.016446      2.000000
  0.026740  0.128459 -0.035774      1.000000
  0.049644  0.142736 -0.037215      2.000000
  0.072548  0.157014 -0.038656      1.000000
 -0.001106 -0.014694  0.050948      2.000000
  0.021799 -0.000417  0.049507      2.000000
  0.044703  0.013861  0.048066      2.000000
 -0.024010 -0.028972  0.052390      2.000000
  0.012264  0.049535  0.033061      2.000000
  0.035169  0.063813  0.031620      2.000000
  0.058073  0.078090  0.030179      2.000000
 -0.010640  0.035257  0.034503      2.000000
  0.025634  0.113764  0.015174      2.000000
  0.048538  0.128042  0.013733      2.000000
  0.071443  0.142320  0.012292      2.000000
  0.002730  0.099487  0.016616      2.000000
 -0.014475 -0.078924  0.068836      2.000000
  0.008429 -0.064646  0.067394      2.000000
  0.031333 -0.050369  0.065953      2.000000
 -0.037380 -0.093201  0.070277      2.000000
 -0.002211 -0.029389  0.101897      1.000000
  0.020693 -0.015111  0.100456      2.000000
  0.043597 -0.000834  0.099015      1.000000
  0.011159  0.034840  0.084010      2.000000
  0.034063  0.049118  0.082569      2.000000
  0.056967  0.063396  0.081128      2.000000
 -0.011745  0.020563  0.085451      2.000000
  0.024529  0.099070  0.066123      1.000000
  0.047433  0.113347  0.064682      2.000000
  0.070337  0.127625  0.063241      1.000000

 TETIRR: Found    192 inequivalent tetrahedra from      384

 SYSTEM =  unknown system
 POSCAR =  Good luck

 Startparameter for this run:
   NWRITE =      2    write-flag & timer
   PREC   = accura    normal or accurate (medium, high low for compatibility)
   ISTART =      0    job   : 0-new  1-cont  2-samecut
   ICHARG =      2    charge: 1-file 2-atom 10-const
   ISPIN  =      1    spin polarized calculation?
   LNONCOLLINEAR =      F non collinear calculations
   LSORBIT =      F    spin-orbit coupling
   INIWAV =      1    electr: 0-lowe 1-rand  2-diag
   LASPH  =      F    aspherical Exc in radial PAW
   METAGGA=      F    non-selfconsistent MetaGGA calc.

 Electronic Relaxation 1
   ENCUT  =  420.0 eV  30.87 Ry    5.56 a.u.  21.59  9.80  9.44*2*pi/ulx,y,z
   ENINI  =  420.0     initial cutoff
   ENAUG  =  628.9 eV  augmentation charge cutoff
   NELM   =    100;   NELMIN=  2; NELMDL= -5     # of ELM steps
   EDIFF  = 0.2E-04   stopping-criterion for ELM
   LREAL  =      T    real-space projection
   NLSPLINE    = F    spline interpolate recip. space projectors
   LCOMPAT=      F    compatible to vasp.4.4
   GGA_COMPAT  = T    GGA compatible to vasp.4.4-vasp.4.6
   LMAXPAW     = -100 max onsite density
   LMAXMIX     =    2 max onsite mixed and CHGCAR
   VOSKOWN=      0    Vosko Wilk Nusair interpolation
   ROPT   =   -0.00025  -0.00025  -0.00025
 Ionic relaxation
   EDIFFG = 0.2E-03   stopping-criterion for IOM
   NSW    =    100    number of steps for IOM
   NBLOCK =      1;   KBLOCK =    100    inner block; outer block
   IBRION =      2    ionic relax: 0-MD 1-quasi-New 2-CG
   NFREE  =      1    steps in history (QN), initial steepest desc. (CG)
   ISIF   =      3    stress and relaxation
   IWAVPR =     11    prediction:  0-non 1-charg 2-wave 3-comb
   ISYM   =      2    0-nonsym 1-usesym 2-fastsym
   LCORR  =      T    Harris-Foulkes like correction to forces

   POTIM  = 0.5000    time-step for ionic-motion
   TEIN   =    0.0    initial temperature
   TEBEG  =    0.0;   TEEND  =   0.0 temperature during run
   SMASS  =  -3.00    Nose mass-parameter (am)
   estimated Nose-frequenzy (Omega)   =  0.10E-29 period in steps =****** mass=  -0.382E-26a.u.
   SCALEE = 1.0000    scale energy and forces
   NPACO  =    256;   APACO  = 16.0  distance and # of slots for P.C.
   PSTRESS=    0.0 pullay stress

[...]
     46       9.2346      0.00000
     47       9.2985      0.00000
     48       9.8960      0.00000

[...]

 soft charge-density along one line, spin component           1
         0         1         2         3         4         5         6         7         8         9
 total charge-density along one line

------------------------ aborting loop because EDIFF is reached ----------------------------------------

  FORCE on cell =-STRESS in cart. coord.  units (eV):
  Direction    XX          YY          ZZ          XY          YZ          ZX
  Alpha Z    75.35643    75.35643    75.35643
  Ewald    -941.01084  -940.30169 -1023.95946   -14.56725    36.85688    13.84645
  Hartree   192.47785   195.14576   160.87158    -5.97035    12.67487     2.13843
  E(xc)    -277.27576  -277.27063  -277.21074    -0.00087    -0.01755    -0.00004
  Local    -604.10297  -608.70508  -494.29115    19.58570   -46.26136   -13.00196
  n-local   615.07423   615.08475   613.10543    -0.00933     0.42696    -0.24819
  augment   -42.74521   -42.86579   -42.98300    -0.01842     0.18040     0.20706
  Kinetic   982.24815   983.53735   989.10983     0.97404    -3.85508    -2.95343
  Fock        0.00000     0.00000     0.00000     0.00000     0.00000     0.00000
  Total       0.02189    -0.01891    -0.00108    -0.00648     0.00512    -0.01167
  in kB       0.13392    -0.11569    -0.00663    -0.03964     0.03135    -0.07142

 VOLUME and BASIS-vectors are now :
  energy-cutoff  :      420.00
  volume of cell :      261.86
      direct lattice vectors                 reciprocal lattice vectors
    12.609369451 -2.771132670 -0.525636952     0.091616830  0.057110440 -0.005764728
    -2.959016872  4.882531903  1.344000944     0.053479603  0.256917463 -0.071548062
    -0.682171039  1.635774010  5.363900325    -0.004422052 -0.058777743  0.203793964

[...]

 FORCES acting on ions
    electron-ion (+dipol)            ewald-force                    non-local-force                 convergence-correction
   0.130E+01 -.978E+00 -.450E+00   -.114E+01 0.804E+00 0.409E+00   -.167E+00 0.171E+00 0.412E-01   0.206E-03 -.488E-03 -.288E-04
   -.900E+00 0.132E+01 0.611E+00   0.827E+00 -.109E+01 -.528E+00   0.829E-01 -.222E+00 -.850E-01   -.237E-03 0.496E-03 0.171E-03
   0.450E+02 -.304E+02 0.518E+02   -.454E+02 0.308E+02 -.534E+02   0.459E+00 -.446E+00 0.163E+01   -.269E-03 0.181E-03 -.148E-03
   -.751E+02 0.615E+00 0.317E+02   0.763E+02 -.470E+00 -.325E+02   -.124E+01 -.146E+00 0.754E+00   0.205E-03 -.784E-03 0.701E-03
   0.284E+02 0.764E+02 -.952E+01   -.289E+02 -.778E+02 0.998E+01   0.509E+00 0.133E+01 -.457E+00   0.219E-03 -.212E-03 -.851E-03
   -.686E+01 -.301E+02 -.694E+02   0.695E+01 0.301E+02 0.710E+02   -.873E-01 -.302E-01 -.167E+01   -.150E-03 0.150E-03 0.209E-03
   -.454E+02 0.315E+02 -.521E+02   0.458E+02 -.320E+02 0.536E+02   -.451E+00 0.525E+00 -.154E+01   0.224E-03 -.155E-03 0.109E-03
   0.758E+02 -.217E+01 -.302E+02   -.770E+02 0.210E+01 0.310E+02   0.124E+01 0.674E-01 -.779E+00   -.154E-03 0.666E-03 -.669E-03
   0.738E+01 0.295E+02 0.681E+02   -.756E+01 -.295E+02 -.698E+02   0.180E+00 -.537E-01 0.173E+01   0.814E-04 -.178E-03 -.240E-03
   -.289E+02 -.762E+02 0.105E+02   0.295E+02 0.774E+02 -.110E+02   -.570E+00 -.127E+01 0.452E+00   -.257E-03 0.225E-03 0.912E-03
   -.112E+01 -.734E+01 -.149E+02   0.115E+01 0.638E+01 0.143E+02   -.246E-01 0.958E+00 0.645E+00   0.143E-03 -.229E-03 0.132E-03
   0.635E+00 0.831E+01 0.134E+02   -.753E+00 -.728E+01 -.128E+02   0.122E+00 -.104E+01 -.605E+00   -.155E-03 0.257E-03 -.175E-03
   0.311E+00 -.681E+00 0.424E+00   -.257E+00 0.519E+00 -.416E+00   -.575E-01 0.158E+00 -.850E-03   -.123E-03 0.209E-03 0.105E-03
   0.103E+02 -.771E+01 0.942E+01   -.934E+01 0.700E+01 -.927E+01   -.956E+00 0.714E+00 -.149E+00   0.119E-03 -.153E-03 -.218E-03
   -.103E+02 0.769E+01 -.101E+02   0.934E+01 -.703E+01 0.994E+01   0.960E+00 -.661E+00 0.174E+00   -.116E-03 0.164E-03 0.160E-03
   -.573E+00 0.184E+00 0.522E+00   0.484E+00 -.710E-01 -.471E+00   0.880E-01 -.112E+00 -.505E-01   0.186E-03 -.203E-03 -.659E-04
   -.869E-01 0.600E-01 -.878E-01   0.705E-14 0.185E-14 -.219E-13   0.882E-01 -.597E-01 0.887E-01   -.773E-04 -.547E-04 0.105E-03

 POSITION                                       TOTAL-FORCE (eV/Angst)
     -0.82196      5.64231      6.00523        -0.010058     -0.003365     -0.000046
      8.32909     -0.69969      1.92683         0.009867      0.005551     -0.002534
      0.96795      1.80426      3.34668         0.002139      0.001521      0.003142
      4.09476      0.67614      4.09010         0.005570     -0.001992     -0.003750
     -0.87198      2.09992      0.66641        -0.000779      0.005932     -0.000643
      2.79262      0.02110      1.13420         0.003575     -0.001085      0.000631
      6.53814      3.12360      4.57231        -0.002741      0.003580     -0.002266
      6.37388     -0.59599      2.50650        -0.006725      0.000465     -0.000507
      8.33624     -1.58687      0.08365         0.000539     -0.000057     -0.001579
      9.07930      1.19861      1.89741        -0.003359     -0.003167     -0.001621
      5.15525      0.71575      0.47661         0.004379     -0.005335      0.000097
      2.99221      2.65284      2.07941         0.004066     -0.006006      0.001896
      0.69211      3.18686      5.29277        -0.003675     -0.004400      0.007162
      9.05514      1.92031      4.46788        -0.000891      0.003800     -0.001357
     -1.53231      2.98965      3.44622        -0.001750      0.003248      0.000858
      6.83568      1.78010      2.59634        -0.000157      0.001310      0.000516
    total drift:                                0.001283      0.000221      0.001015

  FREE ENERGIE OF THE ION-ELECTRON SYSTEM (eV)
  free  energy   TOTEN  =       -77.09488552 eV

  energy  without entropy=      -77.09488552  energy(sigma->0) =      -77.09488552

[...]

 eigenvalues of (default mixing * dielectric matrix)
  average eigenvalue GAMMA=   0.9740
  0.9740

[...]

 eigenvalue-minimisations  :  2227
 total energy-change (2. order) : 0.4431176E-05  ( 0.1864438E-06)
 number of electron      76.0000004 magnetization
 augmentation part       -1.6988360 magnetization

[...]

 d Force = 0.1562429E-04[-0.169E-05, 0.329E-04]  d Energy = 0.4213633E-04-0.265E-04
 d Force =-0.6993496E-02[-0.712E-02,-0.687E-02]  d Ewald  =-0.1143354E-01 0.444E-02

 Steepest descent step on ions:
 trial-energy change:   -0.000042  1 .order   -0.000018   -0.000037    0.000000
  (g-gl).g = 0.367E-04      g.g   = 0.367E-04  gl.gl    = 0.000E+00
 g(Force)  = 0.329E-04   g(Stress)= 0.376E-05 ortho     = 0.000E+00
 gamma     =   0.00000
 trial     =   1.00000
 opt step  =   0.98999  (harmonic =   0.98999) maximal distance =0.00047125
 next E    =   -77.094904   (d E  =  -0.00002)

 real space projection operators:
  max/ min on nodes  :        323.32        252.55

[...]

 eigenvalue-minimisations  :  4472
 total energy-change (2. order) :-0.3974346E-05  (-0.1216273E-04)
 number of electron      76.0000004 magnetization
 augmentation part       -1.6990986 magnetization

 Broyden mixing:
  rms(total) = 0.13205E-02    rms(broyden)= 0.13193E-02
  rms(prec ) = 0.14173E-02
  weight for this iteration     100.00

[...]

--------------------------------------- Iteration      3(   2)  ---------------------------------------

 BZINTS: Fermi energy:  3.654725; 76.000000 electrons
         Band energy:-602.835608;  BLOECHL correction:  0.000000

 eigenvalue-minimisations  :  1763
 total energy-change (2. order) : 0.3557943E-07  (-0.8845395E-06)
 number of electron      76.0000004 magnetization
 augmentation part       -1.6990986 magnetization

 Free energy of the ion-electron system (eV)
  alpha Z        PSCENC =        75.35600509
  Ewald energy   TEWEN  =     -2905.25604811
  -Hartree energ DENC   =      -548.49589987
  -exchange      EXHF   =         0.00000000
  -V(xc)+E(xc)   XCENC  =       185.51897781
  PAW double counting   =      7465.43903565    -7515.90922213
  entropy T*S    EENTRO =         0.00000000
  eigenvalues    EBANDS =      -602.83560825
  atomic energy  EATOM  =      3769.08782378
  Solvation  Ediel_sol  =         0.00000000
  free energy    TOTEN  =       -77.09493602 eV

  energy without entropy =      -77.09493602  energy(sigma->0) =      -77.09493602

 average (electrostatic) potential at core
  the test charge radii are     0.9587  0.9698  0.7079
  (the norm of the test charge is              1.0000)
       1 -87.1956       2 -87.1969       3 -87.3287       4 -87.3554       5 -87.3601
       6 -87.3243       7 -87.3263       8 -87.3618       9 -87.3311      10 -87.3560
      11 -63.3383      12 -63.3165      13 -62.9512      14 -63.3225      15 -63.3316
      16 -62.9528

 E-fermi :   3.6547     XC(G=0):  -9.6097     alpha+bet :-11.5334

[...]

 k-point    36 :       0.5000    0.5000    0.5000
  band No.  band energies     occupation
      1     -40.4911      2.00000
      2     -40.4846      2.00000
      3     -40.4754      2.00000
      4     -40.4696      2.00000
      5     -40.1254      2.00000
      6     -40.1239      2.00000
      7     -11.6235      2.00000
      8     -11.5190      2.00000
      9      -8.8982      2.00000
     10      -8.6891      2.00000
     11      -8.5977      2.00000
     12      -8.5020      2.00000
     13      -8.3163      2.00000
     14      -8.2909      2.00000
     15      -4.2489      2.00000
     16      -4.0142      2.00000
     17      -2.0891      2.00000
     18      -1.8332      2.00000
     19      -1.6486      2.00000
     20      -0.8784      2.00000
     21      -0.7979      2.00000
     22      -0.5380      2.00000
     23       0.5659      2.00000
     24       0.8034      2.00000
     25       0.9889      2.00000
     26       1.1182      2.00000
     27       1.2251      2.00000
     28       1.4427      2.00000
     29       1.4773      2.00000
     30       1.6493      2.00000
     31       1.9972      2.00000
     32       2.1209      2.00000
     33       2.4573      2.00000
     34       2.6774      2.00000
     35       3.1043      2.00000
     36       3.1532      2.00000
     37       3.4046      2.00000
     38       3.5119      2.00000
     39       6.4499      0.00000
     40       7.0387      0.00000
     41       7.2695      0.00000
     42       7.3831      0.00000
     43       7.6882      0.00000
     44       7.8667      0.00000
     45       8.2705      0.00000
     46       8.6729      0.00000
     47       8.7053      0.00000
     48       9.2668      0.00000

 soft charge-density along one line, spin component           1
         0         1         2         3         4         5         6         7         8         9
 total charge-density along one line

------------------------ aborting loop because EDIFF is reached ----------------------------------------

  FORCE on cell =-STRESS in cart. coord.  units (eV):
  Direction    XX          YY          ZZ          XY          YZ          ZX
  Alpha Z    75.35601    75.35601    75.35601
  Ewald    -941.28650  -940.02493 -1023.94924   -14.49622    36.79498    14.00002
  Hartree   192.43806   195.18420   160.87316    -5.95954    12.66809     2.16102
  E(xc)    -277.27625  -277.27400  -277.21273    -0.00122    -0.01721    -0.00085
  Local    -603.78882  -608.98854  -494.28746    19.50992   -46.19625   -13.17069
  n-local   614.92725   615.01952   613.00264     0.00034     0.41769    -0.22522
  augment   -42.76341   -42.88811   -43.00357    -0.01871     0.18096     0.20555
  Kinetic   982.34507   983.61536   989.20056     0.96887    -3.85579    -2.95422
  Fock        0.00000     0.00000     0.00000     0.00000     0.00000     0.00000
  Total      -0.04861    -0.00049    -0.02064     0.00345    -0.00754     0.01561
  in kB      -0.29740    -0.00302    -0.12627     0.02108    -0.04612     0.09553

 VOLUME and BASIS-vectors are now :
  energy-cutoff  :      420.00
  volume of cell :      261.86
      direct lattice vectors                 reciprocal lattice vectors
    12.610265205 -2.771228176 -0.526116979     0.091611748  0.057115523 -0.005762428
    -2.959351460  4.882334120  1.344174384     0.053478585  0.256934093 -0.071550360
    -0.682434135  1.635776932  5.363931769    -0.004415800 -0.058784264  0.203795368

  length of vectors
    12.921892014  5.865300699  5.649181050     0.108111521  0.272019377  0.212150044

 FORCES acting on ions
    electron-ion (+dipol)            ewald-force                    non-local-force                 convergence-correction
   0.117E+01 -.102E+01 -.455E+00   -.102E+01 0.844E+00 0.412E+00   -.142E+00 0.179E+00 0.420E-01   0.280E-03 0.103E-02 -.481E-03
   -.775E+00 0.136E+01 0.615E+00   0.706E+00 -.113E+01 -.532E+00   0.584E-01 -.231E+00 -.852E-01   -.507E-03 -.130E-02 0.551E-04
   0.450E+02 -.304E+02 0.518E+02   -.454E+02 0.309E+02 -.535E+02   0.455E+00 -.445E+00 0.163E+01   0.400E-02 0.113E-02 0.980E-04
   -.750E+02 0.600E+00 0.317E+02   0.762E+02 -.460E+00 -.324E+02   -.125E+01 -.145E+00 0.759E+00   0.390E-02 0.163E-02 -.653E-03
   0.284E+02 0.765E+02 -.952E+01   -.289E+02 -.778E+02 0.998E+01   0.506E+00 0.131E+01 -.456E+00   0.297E-02 0.236E-02 -.670E-04
   -.689E+01 -.301E+02 -.694E+02   0.698E+01 0.301E+02 0.710E+02   -.909E-01 -.302E-01 -.167E+01   0.259E-02 0.243E-02 -.203E-03
   -.454E+02 0.315E+02 -.521E+02   0.458E+02 -.320E+02 0.537E+02   -.447E+00 0.522E+00 -.154E+01   -.418E-02 -.229E-02 -.718E-03
   0.757E+02 -.214E+01 -.302E+02   -.769E+02 0.207E+01 0.310E+02   0.125E+01 0.675E-01 -.785E+00   -.404E-02 -.841E-03 0.388E-03
   0.742E+01 0.295E+02 0.681E+02   -.759E+01 -.295E+02 -.698E+02   0.181E+00 -.521E-01 0.173E+01   -.379E-02 -.207E-02 0.589E-03
   -.289E+02 -.763E+02 0.105E+02   0.295E+02 0.775E+02 -.110E+02   -.565E+00 -.126E+01 0.451E+00   -.206E-02 -.242E-02 0.111E-03
   -.111E+01 -.734E+01 -.149E+02   0.114E+01 0.638E+01 0.143E+02   -.254E-01 0.960E+00 0.645E+00   -.434E-04 -.534E-03 -.737E-04
   0.631E+00 0.830E+01 0.135E+02   -.748E+00 -.727E+01 -.128E+02   0.121E+00 -.104E+01 -.606E+00   0.441E-03 0.271E-03 0.484E-05
   0.323E+00 -.681E+00 0.413E+00   -.266E+00 0.521E+00 -.405E+00   -.610E-01 0.156E+00 -.111E-02   0.157E-02 0.681E-03 0.252E-03
   0.103E+02 -.771E+01 0.943E+01   -.935E+01 0.700E+01 -.928E+01   -.956E+00 0.714E+00 -.149E+00   -.284E-03 -.196E-03 -.164E-03
   -.103E+02 0.769E+01 -.101E+02   0.935E+01 -.703E+01 0.994E+01   0.959E+00 -.661E+00 0.174E+00   0.457E-03 0.275E-03 0.788E-05
   -.583E+00 0.188E+00 0.521E+00   0.493E+00 -.766E-01 -.470E+00   0.919E-01 -.110E+00 -.503E-01   -.204E-02 -.100E-02 0.400E-03
   -.846E-01 0.607E-01 -.854E-01   -.248E-13 0.390E-13 0.216E-14   0.866E-01 -.594E-01 0.869E-01   -.742E-03 -.844E-03 -.453E-03

 POSITION                                       TOTAL-FORCE (eV/Angst)
     -0.82281      5.64194      6.00532         0.010070      0.003695     -0.000801
      8.33005     -0.69952      1.92640        -0.010996     -0.002565     -0.001441
      0.96796      1.80426      3.34681        -0.002650      0.004182      0.000387
      4.09513      0.67599      4.08978        -0.008637     -0.003650      0.001538
     -0.87214      2.10012      0.66644        -0.004614     -0.004583     -0.001660
      2.79294      0.02101      1.13413         0.001975     -0.002606      0.000072
      6.53822      3.12353      4.57201         0.002126      0.001117      0.000292
      6.37390     -0.59602      2.50624         0.007761      0.001810     -0.005732
      8.33684     -1.58694      0.08326         0.002175      0.001396     -0.001068
      9.07964      1.19824      1.89703         0.000941      0.008028     -0.000638
      5.15577      0.71536      0.47645         0.003918     -0.005739     -0.000152
      2.99248      2.65238      2.07943         0.004576     -0.005619      0.002049
      0.69173      3.18654      5.29312        -0.003280     -0.003643      0.007182
      9.05549      1.92027      4.46752        -0.001155      0.003901     -0.001225
     -1.53267      2.98972      3.44635        -0.001675      0.003650      0.000770
      6.83599      1.77997      2.59615        -0.000536      0.000624      0.000427
    total drift:                                0.001195      0.000456      0.001014

  FREE ENERGIE OF THE ION-ELECTRON SYSTEM (eV)
  free  energy   TOTEN  =       -77.09493602 eV

  energy  without entropy=      -77.09493602  energy(sigma->0) =      -77.09493602

 d Force = 0.4422710E-07[ 0.715E-07, 0.169E-07]  d Energy = 0.8369943E-05-0.833E-05
 d Force = 0.7129356E-04[ 0.713E-04, 0.713E-04]  d Ewald  = 0.1158854E-03-0.446E-04

 reached required accuracy - stopping structural energy minimisation
 BZINTS: Fermi energy:  3.654725; 76.000000 electrons
         Band energy:-602.835608;  BLOECHL correction:  0.000000